120
150
95
61
100
97
49
29
35
38
60
62
20
83
74
94
49
77
24
82
56
68
83
41
86
41
24
62
44
49
42
87
28
39
41
29
100
38
79
96
81
77
54
87
35
28
42
46
46
95
83
87
84
87
54
96
54
94
67
62
74
76
27
32
76
35
89
24
66
88
100
83
25
61
72
28
63
74
50
86
31
89
20
61
65
35
54
56
56
42
59
54
24
58
94
73
38
27
23
29
100
50
94
31
49
77
82
56
95
54
38
31
81
56
68
23
76
100
50
74
56
94
